c Sudoku solution
p cnf 729 0
233 0
245 0
298 0
311 0
322 0
338 0
369 0
373 0
516 0
531 0
579 0
629 0
634 0
665 0
676 0
688 0
693 0
799 0
837 0
859 0
449 0
868 0
872 0
914 0
939 0
943 0
956 0
755 0
962 0
466 0
357 0
286 0
189 0
192 0
252 0
219 0
346 0
651 0
896 0
385 0
394 0
435 0
595 0
732 0
726 0
136 0
975 0
778 0
713 0
815 0
821 0
928 0
883 0
784 0
844 0
117 0
125 0
224 0
171 0
277 0
148 0
261 0
612 0
418 0
482 0
542 0
647 0
558 0
741 0
767 0
491 0
474 0
587 0
453 0
564 0
427 0
523 0
154 0
163 0
981 0
997 0
